100 2487
1 2 1
1 4 -1
1 5 1
1 6 1
1 7 -1
1 8 -1
1 9 1
1 11 1
1 12 -1
1 14 -1
1 16 -1
1 18 1
1 22 -1
1 24 -1
1 25 1
1 28 -1
1 29 1
1 30 -1
1 31 1
1 32 -1
1 34 1
1 35 -1
1 36 1
1 37 -1
1 39 -1
1 41 -1
1 42 1
1 44 1
1 45 -1
1 46 1
1 48 -1
1 52 -1
1 55 -1
1 57 1
1 59 1
1 61 1
1 62 1
1 63 -1
1 65 -1
1 68 1
1 70 -1
1 71 1
1 72 1
1 76 1
1 79 1
1 80 -1
1 82 1
1 83 1
1 84 1
1 85 1
1 86 -1
1 88 1
1 90 1
1 91 1
1 92 -1
1 94 1
1 95 -1
1 98 -1
1 99 1
2 3 1
2 4 -1
2 7 1
2 10 -1
2 11 -1
2 12 1
2 14 -1
2 17 1
2 18 -1
2 19 1
2 21 1
2 26 1
2 27 -1
2 28 1
2 29 1
2 30 1
2 32 1
2 33 -1
2 35 -1
2 38 1
2 41 1
2 44 1
2 45 1
2 48 -1
2 49 -1
2 52 1
2 53 1
2 55 -1
2 58 1
2 60 1
2 62 -1
2 63 1
2 64 -1
2 65 1
2 67 1
2 68 1
2 74 -1
2 75 1
2 77 -1
2 80 1
2 81 1
2 83 -1
2 84 1
2 92 -1
2 93 1
2 94 1
2 96 -1
2 97 1
2 98 -1
3 5 -1
3 6 -1
3 7 -1
3 12 1
3 13 -1
3 16 -1
3 18 -1
3 19 -1
3 20 1
3 23 -1
3 25 -1
3 27 1
3 28 1
3 30 1
3 31 -1
3 32 -1
3 33 -1
3 35 -1
3 36 -1
3 40 -1
3 42 1
3 43 1
3 46 -1
3 48 -1
3 49 1
3 50 -1
3 51 1
3 52 1
3 53 1
3 54 1
3 56 1
3 57 1
3 60 1
3 62 1
3 63 1
3 65 -1
3 68 -1
3 69 1
3 70 -1
3 72 1
3 73 1
3 74 1
3 80 -1
3 90 -1
3 92 -1
3 94 -1
3 96 -1
3 97 -1
3 100 1
4 5 1
4 7 1
4 8 1
4 12 -1
4 13 1
4 14 1
4 17 -1
4 18 -1
4 21 1
4 22 1
4 24 1
4 25 1
4 28 1
4 29 -1
4 30 1
4 31 -1
4 33 1
4 35 1
4 37 -1
4 44 -1
4 45 1
4 47 -1
4 48 -1
4 49 -1
4 50 -1
4 53 -1
4 54 -1
4 55 -1
4 56 -1
4 57 1
4 64 1
4 65 -1
4 66 1
4 67 -1
4 68 -1
4 71 -1
4 72 1
4 73 1
4 75 1
4 76 -1
4 77 -1
4 78 -1
4 79 -1
4 84 -1
4 90 1
4 98 1
4 100 1
5 7 -1
5 8 -1
5 9 1
5 10 -1
5 12 -1
5 15 -1
5 20 1
5 25 -1
5 26 -1
5 27 1
5 28 -1
5 30 -1
5 33 1
5 35 -1
5 36 -1
5 39 -1
5 40 1
5 41 -1
5 43 -1
5 45 -1
5 47 -1
5 52 -1
5 55 1
5 57 -1
5 58 -1
5 59 1
5 60 -1
5 61 1
5 63 -1
5 65 1
5 66 -1
5 70 1
5 71 1
5 72 1
5 76 1
5 77 1
5 79 1
5 80 1
5 81 1
5 83 -1
5 84 -1
5 85 -1
5 87 1
5 88 -1
5 92 1
5 95 -1
5 97 1
5 99 -1
6 7 1
6 8 -1
6 10 -1
6 12 1
6 15 1
6 16 1
6 17 1
6 19 -1
6 22 1
6 24 -1
6 26 1
6 28 1
6 31 -1
6 34 1
6 35 -1
6 37 1
6 38 1
6 40 -1
6 41 -1
6 42 -1
6 46 -1
6 47 1
6 51 1
6 52 -1
6 53 1
6 57 -1
6 59 -1
6 60 -1
6 61 1
6 62 1
6 63 -1
6 64 -1
6 66 -1
6 69 -1
6 70 -1
6 71 1
6 73 1
6 75 -1
6 78 1
6 80 1
6 81 -1
6 82 -1
6 83 -1
6 85 -1
6 87 -1
6 89 1
6 92 -1
6 93 1
6 96 1
6 97 -1
6 100 1
7 14 -1
7 15 -1
7 16 1
7 17 -1
7 18 1
7 26 1
7 27 1
7 28 -1
7 30 1
7 31 -1
7 32 1
7 33 1
7 35 1
7 36 1
7 37 1
7 38 -1
7 41 -1
7 42 -1
7 44 -1
7 49 -1
7 50 -1
7 51 -1
7 52 1
7 53 -1
7 54 -1
7 57 1
7 59 -1
7 61 -1
7 63 -1
7 65 1
7 68 1
7 69 1
7 73 -1
7 74 -1
7 76 -1
7 78 1
7 80 1
7 81 -1
7 82 1
7 84 -1
7 85 -1
7 88 1
7 90 -1
7 91 -1
7 92 1
7 94 -1
7 97 -1
7 98 1
8 9 1
8 10 -1
8 14 1
8 15 1
8 19 1
8 20 1
8 21 -1
8 22 1
8 23 1
8 24 -1
8 25 1
8 26 1
8 27 1
8 28 1
8 29 -1
8 30 -1
8 32 1
8 34 1
8 35 -1
8 37 1
8 41 1
8 43 1
8 44 1
8 45 -1
8 46 -1
8 49 -1
8 50 -1
8 51 -1
8 52 1
8 53 1
8 56 1
8 61 -1
8 62 -1
8 63 1
8 64 -1
8 65 1
8 69 1
8 72 -1
8 75 1
8 79 1
8 80 -1
8 82 1
8 86 -1
8 90 -1
8 91 1
8 92 1
8 93 -1
8 96 -1
9 10 1
9 11 1
9 12 -1
9 14 1
9 16 1
9 18 -1
9 19 1
9 20 -1
9 21 1
9 22 -1
9 25 1
9 27 -1
9 28 1
9 31 -1
9 34 1
9 35 1
9 37 1
9 38 1
9 39 -1
9 40 1
9 47 -1
9 48 1
9 49 1
9 50 1
9 51 1
9 52 1
9 53 -1
9 54 -1
9 56 -1
9 57 1
9 60 -1
9 61 -1
9 64 -1
9 65 -1
9 66 -1
9 67 1
9 71 -1
9 72 1
9 73 -1
9 77 -1
9 78 -1
9 80 -1
9 81 -1
9 83 -1
9 85 1
9 87 -1
9 89 -1
9 90 1
9 91 -1
9 94 1
9 95 1
9 99 1
9 100 -1
10 14 -1
10 16 1
10 17 -1
10 18 1
10 20 1
10 21 -1
10 24 1
10 25 -1
10 31 1
10 33 1
10 35 -1
10 37 1
10 40 1
10 45 1
10 46 -1
10 48 -1
10 49 1
10 50 1
10 53 1
10 55 1
10 57 1
10 59 1
10 60 1
10 62 -1
10 69 -1
10 72 1
10 74 -1
10 77 1
10 79 1
10 80 1
10 82 1
10 84 -1
10 86 1
10 87 1
10 89 1
10 90 -1
10 93 -1
10 98 -1
10 99 1
11 14 1
11 15 1
11 18 -1
11 23 -1
11 25 1
11 26 -1
11 27 -1
11 28 -1
11 29 -1
11 30 1
11 32 -1
11 33 -1
11 34 1
11 35 1
11 36 -1
11 38 1
11 39 1
11 40 -1
11 41 -1
11 42 -1
11 43 1
11 44 1
11 45 1
11 47 -1
11 48 1
11 50 1
11 51 -1
11 52 1
11 53 -1
11 57 -1
11 59 1
11 60 1
11 61 -1
11 62 -1
11 64 -1
11 66 -1
11 69 -1
11 76 -1
11 82 1
11 85 1
11 86 -1
11 94 -1
11 96 -1
11 97 1
11 98 1
11 99 -1
12 13 1
12 17 1
12 19 -1
12 21 1
12 26 -1
12 29 -1
12 30 -1
12 31 -1
12 32 -1
12 35 -1
12 38 1
12 39 -1
12 41 -1
12 42 -1
12 43 1
12 46 -1
12 53 1
12 54 -1
12 56 -1
12 57 -1
12 58 1
12 59 -1
12 60 -1
12 61 1
12 63 -1
12 65 -1
12 66 -1
12 67 -1
12 70 1
12 71 -1
12 72 -1
12 73 -1
12 77 -1
12 80 -1
12 81 -1
12 82 -1
12 83 1
12 84 1
12 85 -1
12 87 1
12 90 1
12 91 1
12 93 1
12 94 1
12 97 1
12 98 1
12 99 1
12 100 1
13 16 -1
13 18 1
13 20 -1
13 21 1
13 22 1
13 23 1
13 24 1
13 25 1
13 28 -1
13 29 1
13 30 1
13 32 -1
13 33 -1
13 34 1
13 35 1
13 37 -1
13 39 -1
13 40 1
13 42 1
13 43 1
13 47 1
13 50 -1
13 51 -1
13 52 1
13 53 1
13 55 -1
13 56 1
13 59 1
13 62 1
13 66 -1
13 67 1
13 68 1
13 70 1
13 71 1
13 73 -1
13 77 1
13 80 1
13 83 1
13 85 -1
13 87 -1
13 88 -1
13 89 -1
13 90 1
13 91 -1
13 92 -1
13 93 1
13 100 -1
14 15 1
14 17 -1
14 18 -1
14 19 1
14 21 1
14 23 1
14 28 1
14 31 -1
14 33 -1
14 37 1
14 40 1
14 43 -1
14 44 1
14 48 -1
14 49 1
14 50 -1
14 51 -1
14 52 -1
14 54 -1
14 56 1
14 59 1
14 64 -1
14 65 -1
14 66 -1
14 72 1
14 73 1
14 74 -1
14 76 1
14 77 -1
14 79 1
14 81 -1
14 82 -1
14 87 -1
14 90 -1
14 94 1
14 95 1
14 98 -1
14 99 -1
14 100 1
15 16 1
15 18 -1
15 20 -1
15 22 -1
15 23 1
15 24 1
15 27 1
15 29 1
15 32 -1
15 34 1
15 35 1
15 37 -1
15 38 -1
15 39 -1
15 40 -1
15 41 -1
15 43 1
15 44 -1
15 45 -1
15 46 -1
15 47 -1
15 48 -1
15 50 1
15 55 -1
15 56 -1
15 57 1
15 61 1
15 63 -1
15 65 1
15 67 1
15 71 -1
15 72 -1
15 73 1
15 74 1
15 77 1
15 79 1
15 80 1
15 81 -1
15 82 -1
15 84 -1
15 90 -1
15 91 1
15 94 1
15 96 -1
15 98 1
16 19 -1
16 20 -1
16 21 -1
16 23 1
16 25 -1
16 27 1
16 28 -1
16 29 -1
16 32 -1
16 36 -1
16 37 -1
16 38 -1
16 40 1
16 41 1
16 45 -1
16 47 -1
16 52 -1
16 56 -1
16 58 -1
16 61 -1
16 63 1
16 65 -1
16 66 -1
16 68 1
16 70 -1
16 72 -1
16 75 -1
16 77 -1
16 79 1
16 80 -1
16 83 -1
16 85 -1
16 87 -1
16 88 1
16 90 1
16 91 1
16 93 -1
16 94 1
16 96 1
16 97 -1
17 18 1
17 22 -1
17 23 1
17 24 -1
17 25 -1
17 26 1
17 30 1
17 31 1
17 34 -1
17 35 1
17 36 -1
17 37 1
17 38 -1
17 39 -1
17 42 -1
17 43 -1
17 51 1
17 53 -1
17 55 1
17 56 -1
17 57 1
17 59 -1
17 60 -1
17 62 1
17 64 1
17 65 1
17 66 -1
17 72 1
17 78 1
17 79 -1
17 80 1
17 81 1
17 85 1
17 86 -1
17 89 1
17 91 -1
17 92 -1
17 93 1
17 94 -1
17 95 1
17 96 -1
17 98 1
17 100 1
18 20 1
18 21 -1
18 22 -1
18 26 -1
18 27 1
18 31 1
18 34 -1
18 35 1
18 37 1
18 39 1
18 41 -1
18 42 1
18 43 -1
18 44 -1
18 47 1
18 48 -1
18 49 -1
18 51 -1
18 57 1
18 59 1
18 60 -1
18 61 1
18 62 -1
18 66 -1
18 68 -1
18 69 -1
18 73 -1
18 74 1
18 77 -1
18 79 -1
18 80 1
18 82 1
18 85 1
18 86 -1
18 87 1
18 88 1
18 89 -1
18 91 1
18 93 1
18 95 -1
18 100 1
19 20 -1
19 23 -1
19 24 1
19 25 -1
19 26 1
19 27 -1
19 28 1
19 30 1
19 37 -1
19 39 1
19 41 1
19 42 1
19 45 1
19 47 1
19 52 1
19 54 -1
19 55 1
19 61 -1
19 62 -1
19 64 -1
19 65 1
19 66 1
19 68 -1
19 69 1
19 70 1
19 71 1
19 75 1
19 76 -1
19 77 -1
19 90 -1
19 91 1
19 92 1
19 96 1
19 97 -1
19 99 1
19 100 1
20 21 1
20 22 -1
20 23 -1
20 24 1
20 25 1
20 26 -1
20 27 1
20 30 1
20 33 -1
20 38 -1
20 39 1
20 40 -1
20 43 -1
20 44 1
20 48 -1
20 49 -1
20 50 1
20 51 1
20 52 1
20 57 -1
20 59 1
20 60 1
20 62 -1
20 64 1
20 68 -1
20 70 -1
20 72 1
20 73 1
20 74 1
20 76 1
20 77 1
20 78 1
20 79 1
20 80 -1
20 81 -1
20 84 -1
20 85 -1
20 86 1
20 87 -1
20 91 1
20 92 1
20 93 -1
20 94 -1
20 98 1
20 99 -1
20 100 1
21 22 -1
21 24 1
21 26 -1
21 28 1
21 29 -1
21 30 -1
21 34 1
21 37 1
21 42 1
21 43 -1
21 49 1
21 51 1
21 52 1
21 53 1
21 54 -1
21 56 1
21 58 1
21 61 1
21 62 -1
21 63 1
21 66 1
21 67 -1
21 68 1
21 71 1
21 73 1
21 75 1
21 76 1
21 77 1
21 79 1
21 80 1
21 81 -1
21 87 -1
21 90 -1
21 95 1
21 96 -1
22 24 -1
22 30 -1
22 32 -1
22 36 1
22 38 1
22 42 -1
22 43 1
22 44 -1
22 46 1
22 47 1
22 48 -1
22 51 -1
22 52 -1
22 55 -1
22 56 -1
22 60 1
22 61 -1
22 63 -1
22 65 1
22 66 1
22 69 -1
22 70 1
22 73 -1
22 74 -1
22 76 1
22 78 -1
22 80 -1
22 83 -1
22 86 1
22 88 -1
22 89 -1
22 94 1
22 96 -1
22 99 -1
22 100 1
23 24 1
23 26 1
23 35 1
23 36 1
23 39 1
23 41 -1
23 42 1
23 43 1
23 44 -1
23 51 1
23 54 1
23 55 1
23 56 -1
23 58 1
23 60 1
23 61 1
23 67 -1
23 68 1
23 69 -1
23 71 1
23 72 -1
23 77 -1
23 81 -1
23 84 -1
23 85 -1
23 86 1
23 87 1
23 92 1
23 93 -1
23 98 1
23 100 1
24 26 1
24 27 1
24 37 -1
24 43 -1
24 49 1
24 50 1
24 53 1
24 54 -1
24 55 -1
24 57 -1
24 58 -1
24 59 -1
24 62 1
24 65 1
24 67 -1
24 68 1
24 70 1
24 71 -1
24 72 -1
24 73 -1
24 74 -1
24 76 -1
24 77 -1
24 80 1
24 81 -1
24 83 1
24 88 1
24 90 1
24 91 1
24 93 1
24 94 1
24 96 -1
25 26 1
25 27 1
25 28 -1
25 29 -1
25 30 -1
25 31 1
25 32 1
25 35 1
25 36 1
25 38 -1
25 39 1
25 40 1
25 44 1
25 47 -1
25 48 1
25 50 -1
25 52 1
25 53 1
25 54 -1
25 55 1
25 56 -1
25 58 -1
25 61 1
25 63 1
25 65 -1
25 66 1
25 67 -1
25 73 1
25 74 1
25 75 1
25 77 -1
25 88 1
25 90 1
25 91 -1
25 92 1
25 94 -1
25 95 -1
25 98 1
25 99 -1
25 100 -1
26 30 1
26 31 -1
26 32 1
26 33 1
26 34 1
26 35 -1
26 37 -1
26 38 -1
26 39 -1
26 40 1
26 43 -1
26 45 1
26 47 1
26 48 -1
26 52 -1
26 53 -1
26 56 -1
26 57 -1
26 59 1
26 60 1
26 63 1
26 64 1
26 65 -1
26 66 1
26 71 1
26 76 -1
26 77 -1
26 78 -1
26 80 -1
26 82 1
26 83 1
26 85 -1
26 86 1
26 89 -1
26 90 1
26 93 1
27 28 1
27 32 1
27 35 1
27 36 1
27 37 -1
27 38 1
27 43 1
27 47 -1
27 48 -1
27 53 1
27 54 1
27 56 -1
27 58 1
27 60 -1
27 62 1
27 66 -1
27 68 -1
27 70 1
27 71 1
27 72 1
27 78 -1
27 79 -1
27 82 -1
27 85 -1
27 86 -1
27 89 1
27 91 -1
27 92 -1
27 93 1
27 94 1
27 96 -1
27 97 1
28 29 -1
28 30 -1
28 31 1
28 32 1
28 34 -1
28 37 1
28 39 1
28 41 -1
28 42 -1
28 43 -1
28 45 -1
28 48 1
28 54 1
28 55 -1
28 56 1
28 58 -1
28 63 -1
28 65 -1
28 68 1
28 70 -1
28 73 1
28 74 1
28 75 1
28 79 -1
28 80 1
28 83 1
28 85 1
28 87 -1
28 92 -1
28 95 -1
28 96 1
28 98 -1
29 30 1
29 31 -1
29 34 1
29 36 1
29 37 1
29 41 -1
29 43 1
29 45 1
29 47 1
29 52 1
29 54 -1
29 55 1
29 56 -1
29 58 1
29 59 -1
29 60 -1
29 64 -1
29 65 1
29 66 -1
29 68 -1
29 70 -1
29 72 1
29 73 1
29 75 -1
29 76 1
29 77 1
29 79 1
29 80 -1
29 82 1
29 83 1
29 84 -1
29 86 1
29 87 -1
29 90 -1
29 91 1
29 94 -1
29 98 1
30 32 1
30 34 -1
30 35 1
30 36 -1
30 37 1
30 38 1
30 41 -1
30 42 1
30 44 -1
30 46 -1
30 47 -1
30 48 1
30 49 -1
30 51 -1
30 54 1
30 55 -1
30 56 -1
30 57 -1
30 59 -1
30 64 1
30 66 1
30 67 1
30 68 1
30 69 -1
30 70 -1
30 71 -1
30 74 1
30 75 1
30 77 1
30 78 -1
30 79 -1
30 82 1
30 84 -1
30 88 1
30 89 1
30 90 -1
30 91 1
30 92 -1
30 93 -1
30 95 -1
30 96 -1
30 97 -1
30 100 1
31 33 -1
31 36 -1
31 40 -1
31 42 1
31 43 1
31 46 1
31 47 1
31 52 -1
31 53 -1
31 56 1
31 57 -1
31 59 -1
31 60 -1
31 63 -1
31 65 1
31 69 -1
31 70 1
31 72 -1
31 74 -1
31 75 -1
31 76 1
31 77 -1
31 80 1
31 82 -1
31 83 -1
31 84 -1
31 93 -1
31 96 -1
32 33 1
32 34 1
32 37 1
32 38 1
32 40 1
32 41 1
32 42 1
32 43 1
32 45 -1
32 46 1
32 47 1
32 48 1
32 50 -1
32 51 -1
32 53 -1
32 54 -1
32 57 1
32 58 1
32 61 -1
32 62 1
32 63 -1
32 64 1
32 65 1
32 66 1
32 71 -1
32 73 -1
32 75 -1
32 80 -1
32 81 -1
32 82 -1
32 84 -1
32 85 1
32 87 1
32 90 1
32 91 -1
32 93 -1
32 97 -1
33 34 -1
33 35 -1
33 37 -1
33 41 1
33 43 1
33 45 -1
33 46 1
33 47 -1
33 50 1
33 53 1
33 56 -1
33 58 -1
33 63 1
33 66 1
33 67 1
33 69 1
33 78 1
33 80 -1
33 81 1
33 82 1
33 83 1
33 86 1
33 92 1
33 95 1
33 96 -1
33 98 -1
33 100 -1
34 37 1
34 38 1
34 39 -1
34 40 -1
34 41 -1
34 43 -1
34 45 -1
34 46 1
34 47 -1
34 55 -1
34 58 -1
34 59 1
34 61 -1
34 62 1
34 63 -1
34 64 1
34 65 -1
34 66 -1
34 68 1
34 69 1
34 71 1
34 72 -1
34 74 1
34 76 -1
34 77 1
34 79 1
34 80 -1
34 81 1
34 82 -1
34 85 -1
34 87 1
34 89 -1
34 91 -1
34 92 1
34 96 1
34 97 1
34 98 -1
35 36 1
35 39 -1
35 42 1
35 48 1
35 49 -1
35 50 -1
35 53 1
35 54 1
35 57 -1
35 60 -1
35 61 1
35 65 -1
35 66 1
35 69 -1
35 72 -1
35 74 1
35 75 -1
35 77 1
35 79 -1
35 81 -1
35 82 -1
35 85 1
35 87 1
35 91 -1
35 94 -1
35 95 -1
35 97 -1
35 98 -1
36 37 -1
36 38 -1
36 41 1
36 43 1
36 45 -1
36 46 -1
36 49 -1
36 53 1
36 56 -1
36 58 1
36 60 -1
36 63 -1
36 64 1
36 65 -1
36 66 1
36 67 -1
36 68 -1
36 71 -1
36 75 -1
36 79 1
36 80 -1
36 83 -1
36 85 -1
36 87 1
36 90 -1
36 91 1
36 92 1
36 97 1
36 98 1
36 100 -1
37 38 1
37 39 1
37 42 -1
37 43 -1
37 45 -1
37 48 -1
37 49 -1
37 51 -1
37 56 1
37 57 1
37 58 1
37 59 1
37 60 -1
37 63 -1
37 65 -1
37 66 -1
37 70 1
37 71 -1
37 72 1
37 74 1
37 75 -1
37 76 -1
37 78 1
37 80 1
37 84 1
37 85 1
37 86 1
37 89 -1
37 90 -1
37 91 -1
37 93 -1
37 94 -1
37 96 -1
37 99 1
37 100 1
38 40 -1
38 44 -1
38 45 -1
38 47 1
38 50 -1
38 51 1
38 52 1
38 53 -1
38 54 -1
38 55 -1
38 57 1
38 58 1
38 59 -1
38 60 -1
38 61 -1
38 63 -1
38 65 -1
38 66 1
38 73 1
38 74 1
38 80 1
38 81 -1
38 82 1
38 86 -1
38 88 1
38 90 1
38 92 1
38 93 -1
38 95 1
38 96 1
38 98 1
38 100 1
39 40 -1
39 44 -1
39 46 -1
39 47 -1
39 48 -1
39 51 -1
39 53 1
39 57 1
39 59 1
39 60 -1
39 61 1
39 64 -1
39 66 -1
39 67 1
39 69 -1
39 70 -1
39 73 1
39 74 1
39 75 -1
39 76 -1
39 77 -1
39 81 1
39 82 -1
39 84 -1
39 86 1
39 88 1
39 89 1
39 90 1
39 92 -1
39 94 -1
39 95 -1
39 96 1
39 97 1
39 98 -1
39 100 1
40 41 1
40 43 1
40 44 1
40 45 -1
40 46 1
40 50 1
40 54 -1
40 55 1
40 56 -1
40 61 -1
40 62 1
40 70 1
40 71 1
40 72 -1
40 73 1
40 74 1
40 75 -1
40 76 1
40 77 1
40 78 1
40 80 1
40 81 1
40 83 1
40 87 -1
40 88 1
40 89 -1
40 90 -1
40 91 -1
40 92 1
40 93 1
40 95 1
40 98 -1
40 99 -1
41 43 -1
41 44 1
41 46 1
41 47 1
41 48 1
41 50 -1
41 52 -1
41 53 1
41 54 -1
41 60 -1
41 63 1
41 66 1
41 68 1
41 73 1
41 75 -1
41 76 1
41 77 1
41 78 1
41 82 -1
41 83 -1
41 84 -1
41 87 1
41 88 1
41 89 -1
41 90 1
41 94 -1
41 95 1
42 48 -1
42 50 1
42 51 1
42 53 -1
42 54 1
42 55 -1
42 57 1
42 58 1
42 59 1
42 62 -1
42 64 -1
42 65 -1
42 66 -1
42 67 1
42 69 -1
42 70 -1
42 72 1
42 73 1
42 74 -1
42 79 1
42 80 1
42 81 -1
42 86 -1
42 87 1
42 89 -1
42 90 -1
42 92 -1
42 94 1
42 96 -1
42 97 1
42 99 -1
43 44 -1
43 47 1
43 48 -1
43 49 1
43 51 1
43 53 -1
43 54 -1
43 56 -1
43 58 -1
43 62 1
43 66 -1
43 68 -1
43 69 1
43 71 1
43 72 -1
43 75 -1
43 76 -1
43 77 -1
43 83 1
43 84 1
43 85 1
43 86 1
43 87 -1
43 89 -1
43 92 -1
43 94 1
43 98 -1
43 99 1
43 100 1
44 46 -1
44 49 -1
44 53 1
44 55 1
44 56 -1
44 58 -1
44 62 -1
44 63 1
44 64 1
44 65 1
44 66 1
44 67 1
44 69 1
44 71 1
44 72 -1
44 73 1
44 74 1
44 75 -1
44 78 -1
44 80 1
44 82 1
44 85 1
44 86 1
44 89 1
44 90 -1
44 92 1
44 93 -1
44 94 1
44 96 -1
44 97 -1
45 47 1
45 48 -1
45 50 1
45 51 1
45 53 1
45 57 -1
45 59 1
45 60 1
45 61 1
45 63 -1
45 64 1
45 65 1
45 68 1
45 69 1
45 73 1
45 78 1
45 80 1
45 81 1
45 84 1
45 87 -1
45 88 -1
45 89 -1
45 91 -1
45 93 1
45 95 1
45 96 1
45 97 1
45 100 1
46 47 1
46 49 1
46 50 1
46 52 -1
46 54 1
46 55 1
46 56 -1
46 58 -1
46 60 -1
46 63 1
46 64 -1
46 65 1
46 66 -1
46 67 1
46 68 -1
46 69 -1
46 70 -1
46 71 1
46 74 -1
46 77 1
46 86 1
46 92 1
46 93 1
46 94 -1
46 95 1
46 96 -1
46 98 -1
46 99 1
47 51 -1
47 52 -1
47 54 1
47 56 1
47 60 1
47 74 1
47 76 -1
47 80 -1
47 84 1
47 85 -1
47 86 -1
47 87 -1
47 88 -1
47 90 1
47 91 1
47 94 1
47 95 1
47 96 1
47 97 1
47 98 -1
47 99 -1
48 49 -1
48 50 1
48 51 1
48 52 1
48 54 1
48 58 1
48 59 -1
48 60 -1
48 62 -1
48 66 -1
48 68 1
48 69 -1
48 71 1
48 73 -1
48 75 1
48 76 -1
48 77 1
48 78 -1
48 79 1
48 80 -1
48 81 -1
48 83 -1
48 85 1
48 86 1
48 87 -1
48 89 -1
48 90 1
48 93 -1
48 94 1
48 97 1
48 99 1
49 55 -1
49 56 -1
49 57 -1
49 65 1
49 66 1
49 67 -1
49 70 -1
49 71 -1
49 73 -1
49 75 -1
49 82 -1
49 85 -1
49 86 1
49 87 1
49 89 -1
49 91 -1
49 95 1
49 97 1
49 99 -1
49 100 1
50 51 1
50 54 -1
50 55 1
50 57 -1
50 62 1
50 65 1
50 66 -1
50 67 -1
50 69 -1
50 70 1
50 74 -1
50 75 1
50 76 1
50 77 1
50 85 1
50 87 1
50 88 -1
50 89 -1
50 91 1
50 92 -1
50 95 1
50 98 -1
51 52 -1
51 53 -1
51 55 1
51 56 -1
51 57 1
51 59 1
51 60 1
51 61 -1
51 63 1
51 67 -1
51 68 -1
51 69 1
51 71 -1
51 72 -1
51 74 1
51 77 1
51 78 1
51 82 1
51 83 -1
51 85 1
51 86 1
51 87 -1
51 88 -1
51 93 -1
51 95 -1
51 96 -1
51 98 1
51 99 -1
51 100 -1
52 62 1
52 63 -1
52 65 1
52 67 1
52 68 1
52 69 -1
52 70 1
52 71 -1
52 73 -1
52 74 1
52 75 -1
52 76 1
52 78 1
52 79 -1
52 80 1
52 81 -1
52 83 1
52 84 -1
52 89 1
52 90 -1
52 97 1
52 98 -1
53 57 -1
53 60 -1
53 67 1
53 70 -1
53 71 -1
53 78 -1
53 80 -1
53 81 1
53 87 1
53 91 -1
53 95 -1
53 96 -1
53 99 1
54 55 1
54 57 -1
54 58 -1
54 60 1
54 62 -1
54 63 1
54 64 -1
54 66 1
54 67 1
54 70 1
54 74 1
54 75 1
54 77 1
54 79 1
54 80 -1
54 83 1
54 87 1
54 88 1
54 91 -1
54 92 1
54 94 -1
54 95 1
54 96 1
54 97 1
54 98 1
54 99 1
54 100 1
55 56 -1
55 57 1
55 58 -1
55 59 1
55 60 1
55 61 -1
55 64 1
55 67 -1
55 68 -1
55 69 -1
55 70 1
55 72 1
55 73 -1
55 74 1
55 75 -1
55 84 1
55 85 1
55 87 -1
55 89 1
55 90 1
55 91 1
55 92 1
55 93 -1
55 94 -1
55 95 -1
55 97 1
55 99 1
55 100 1
56 58 1
56 60 1
56 62 -1
56 64 1
56 66 -1
56 69 -1
56 70 -1
56 72 1
56 74 1
56 75 1
56 76 1
56 77 -1
56 80 1
56 84 1
56 86 1
56 87 -1
56 88 -1
56 92 -1
56 96 1
57 59 -1
57 60 1
57 62 1
57 65 -1
57 66 -1
57 67 -1
57 69 1
57 72 -1
57 73 1
57 74 -1
57 78 1
57 79 -1
57 81 -1
57 82 1
57 85 1
57 86 1
57 87 -1
57 88 1
57 89 1
57 90 1
57 91 1
57 95 -1
57 96 1
57 97 1
57 98 1
58 60 -1
58 69 -1
58 71 -1
58 73 1
58 78 1
58 84 1
58 87 -1
58 88 1
58 89 1
58 90 1
58 92 -1
58 95 -1
58 96 1
58 97 1
58 100 1
59 61 1
59 62 -1
59 64 1
59 65 1
59 68 -1
59 69 -1
59 70 -1
59 74 -1
59 75 -1
59 76 1
59 78 -1
59 79 -1
59 80 1
59 82 1
59 83 1
59 84 1
59 88 -1
59 89 -1
59 91 -1
59 92 1
59 93 -1
59 94 -1
59 98 -1
59 99 -1
59 100 1
60 64 1
60 65 1
60 67 -1
60 69 -1
60 70 1
60 71 -1
60 73 1
60 74 -1
60 76 1
60 78 1
60 79 1
60 80 -1
60 81 1
60 82 -1
60 85 1
60 86 1
60 87 1
60 88 1
60 89 1
60 91 1
60 94 1
60 96 1
60 97 -1
60 99 -1
61 62 -1
61 63 1
61 66 1
61 71 1
61 72 -1
61 73 -1
61 74 -1
61 76 -1
61 78 1
61 81 -1
61 82 -1
61 84 1
61 85 -1
61 86 1
61 90 1
61 91 -1
61 96 -1
61 97 -1
61 98 -1
61 99 1
61 100 -1
62 63 -1
62 64 1
62 65 -1
62 66 1
62 68 -1
62 69 1
62 70 -1
62 73 1
62 74 1
62 76 1
62 77 -1
62 81 1
62 82 -1
62 83 1
62 84 -1
62 85 1
62 88 1
62 92 1
62 95 -1
62 96 -1
62 98 -1
62 99 1
62 100 1
63 66 -1
63 67 -1
63 68 -1
63 69 1
63 70 1
63 75 -1
63 81 1
63 84 -1
63 86 1
63 87 1
63 88 1
63 89 1
63 90 -1
63 92 1
63 94 -1
63 97 1
63 99 1
63 100 1
64 65 1
64 67 1
64 69 -1
64 72 1
64 73 1
64 74 1
64 75 -1
64 77 1
64 79 -1
64 80 1
64 81 1
64 82 1
64 83 -1
64 84 1
64 85 -1
64 86 -1
64 88 1
64 89 1
64 91 -1
64 95 1
64 97 -1
64 98 -1
65 66 1
65 67 -1
65 68 1
65 69 -1
65 72 -1
65 74 1
65 76 -1
65 77 1
65 79 -1
65 81 1
65 83 1
65 84 1
65 88 -1
65 89 -1
65 90 -1
65 91 -1
65 95 1
65 97 -1
66 69 -1
66 71 1
66 75 -1
66 78 1
66 79 -1
66 85 -1
66 86 -1
66 91 -1
66 95 -1
66 96 1
66 97 -1
66 100 -1
67 69 1
67 70 -1
67 71 -1
67 72 -1
67 74 -1
67 76 1
67 77 -1
67 79 1
67 80 1
67 81 -1
67 82 1
67 85 1
67 87 -1
67 89 1
67 90 -1
67 91 -1
67 92 1
67 94 1
67 99 1
68 72 1
68 76 1
68 78 1
68 81 -1
68 86 -1
68 88 -1
68 90 1
68 91 1
68 92 1
68 94 -1
68 95 1
69 70 -1
69 72 -1
69 76 1
69 77 1
69 78 1
69 79 -1
69 82 -1
69 85 -1
69 87 1
69 88 1
69 90 1
69 94 1
69 95 1
69 97 1
69 98 -1
70 71 -1
70 72 -1
70 77 1
70 80 1
70 83 1
70 84 -1
70 85 1
70 91 1
70 94 -1
70 96 1
70 98 -1
70 99 -1
70 100 -1
71 72 -1
71 73 1
71 74 -1
71 76 -1
71 77 1
71 78 -1
71 79 -1
71 83 -1
71 85 1
71 95 -1
71 96 -1
71 97 -1
71 98 -1
72 73 -1
72 75 -1
72 76 -1
72 79 1
72 80 1
72 82 -1
72 83 -1
72 84 -1
72 91 1
72 92 -1
72 94 1
72 98 -1
72 100 -1
73 74 -1
73 77 -1
73 78 -1
73 82 -1
73 85 -1
73 86 -1
73 88 1
73 89 1
73 92 1
73 93 -1
73 94 1
73 95 1
73 96 1
73 98 1
74 75 -1
74 76 1
74 79 1
74 80 1
74 81 1
74 83 1
74 86 -1
74 87 1
74 88 -1
74 92 -1
74 96 1
75 76 1
75 77 -1
75 79 -1
75 80 -1
75 82 1
75 86 1
75 87 1
75 88 1
75 89 -1
75 94 1
75 98 1
75 99 -1
75 100 1
76 83 -1
76 84 1
76 86 1
76 87 1
76 89 1
76 91 1
76 92 1
76 94 -1
76 95 1
76 96 1
76 100 -1
77 84 -1
77 86 1
77 87 -1
77 89 -1
77 90 1
77 91 -1
77 93 1
77 94 -1
77 95 1
77 96 1
77 97 -1
77 98 -1
77 99 -1
77 100 1
78 79 1
78 81 1
78 82 1
78 84 -1
78 85 -1
78 90 1
78 91 1
78 92 -1
78 93 -1
78 95 1
78 96 -1
78 99 -1
79 80 -1
79 81 1
79 83 1
79 86 -1
79 87 -1
79 91 -1
79 92 1
79 93 -1
79 94 -1
79 95 -1
79 98 -1
79 99 -1
79 100 1
80 81 1
80 83 -1
80 85 1
80 86 1
80 88 -1
80 91 1
80 92 1
80 96 -1
80 97 1
80 98 -1
80 99 1
80 100 1
81 85 1
81 86 1
81 88 -1
81 93 -1
81 95 -1
81 99 -1
82 83 -1
82 87 -1
82 88 -1
82 92 1
82 94 1
82 95 1
82 97 1
82 100 -1
83 84 1
83 85 -1
83 86 1
83 87 -1
83 88 1
83 93 -1
83 95 -1
83 96 -1
83 99 -1
83 100 -1
84 85 1
84 86 -1
84 89 -1
84 90 1
84 91 1
84 92 1
84 93 -1
84 94 -1
84 97 1
84 100 1
85 86 -1
85 87 1
85 92 1
85 95 1
85 96 -1
85 97 1
85 100 -1
86 88 -1
86 89 1
86 91 1
86 92 1
86 94 -1
86 95 -1
86 97 -1
86 98 -1
86 99 -1
86 100 1
87 88 1
87 90 1
87 92 -1
87 97 1
87 99 -1
88 90 1
88 93 -1
88 94 1
88 95 -1
88 96 1
88 97 1
88 98 -1
89 90 1
89 91 -1
89 92 -1
89 94 1
90 92 1
90 93 -1
90 94 -1
90 97 -1
90 100 1
91 93 -1
91 95 1
91 96 -1
91 98 1
92 93 -1
92 94 -1
92 98 -1
92 100 -1
93 94 1
93 96 -1
93 97 1
93 98 -1
93 100 -1
94 95 1
94 96 -1
94 98 -1
95 96 -1
95 98 -1
95 99 -1
96 98 -1
96 100 1
97 98 -1
97 99 1
98 99 -1
98 100 -1
99 100 1
